N = 6;
H = 6;
T = 2;

avail = array3d(1..N, 1..H, 1..T, [2, 6, 2, 10, 5, 3, 5, 1, 5, 3, 5, 6, 7, 5, 3, 10, 3, 5, 0, 5, 3, 2, 5, 4, 7, 3, 8, 3, 10, 3, 10, 10, 7, 1, 3, 10, 3, 10, 7, 4, 10, 2, 5, 1, 5, 8, 1, 3, 8, 4, 9, 6, 9, 0, 9, 3, 9, 4, 6, 2, 2, 3, 8, 10, 8, 7, 3, 10, 3, 1, 0, 9]);

r = array2d(1..H, 1..T, [2, 1, 1, 0, 2, 2, 0, 2, 0, 1, 2, 1]);
